21 700
0 0 150 150 0 0 3815 0 0 0
1 203 171 143 20 66 386 90 0 113
2 542 171 141 30 158 478 90 0 74
3 151 206 171 30 59 379 90 0 564
4 504 219 174 30 582 902 90 0 249
5 346 220 171 10 675 995 90 0 450
6 51 224 155 20 872 1192 90 0 22
7 510 226 164 10 1070 1390 90 0 525
8 219 230 182 10 2404 2724 90 0 596
9 515 210 181 10 2629 2949 90 0 569
10 516 198 182 20 2731 3051 0 0 603
11 113 233 160 -20 972 1292 90 203 0
12 74 222 160 -30 776 1096 90 542 0
13 564 185 180 -30 3016 3336 90 151 0
14 249 223 177 -30 1173 1493 90 504 0
15 450 227 187 -10 1181 1501 90 346 0
16 22 182 178 -20 3110 3430 90 51 0
17 525 229 186 -10 1274 1594 90 510 0
18 596 186 181 -10 2925 3245 90 219 0
19 569 192 185 -10 2828 3148 90 515 0
20 603 198 182 -20 2731 3051 90 516 0

